NAME = AISearchfile021,
SIZE = 21,
345,165,77,500,130,835,97,29,640,125,615,455,680,490,36,285,540,170,27,320,
480,495,105,280,370,280,150,240,140,350,340,280,310,305,165,380,380,505,185,
270,475,230,420,205,475,125,750,480,265,255,200,650,715,310,140,235,125,
380,310,660,215,225,440,170,345,625,450,690,545,190,180,290,430,420,
110,590,475,240,430,485,645,600,175,295,120,495,155,425,91,280,
605,570,96,63,170,625,465,150,605,320,78,480,390,320,700,
865,545,705,265,655,81,235,520,480,250,610,205,610,360,
605,160,405,285,345,400,120,415,91,385,395,67,365,
240,315,190,170,485,390,510,355,350,155,90,625,
600,555,575,320,380,535,175,200,150,440,155,
495,160,445,235,87,375,525,240,220,240,
480,755,750,585,515,775,255,235,585,
440,440,295,415,245,480,435,380,
350,385,435,265,590,650,370,
425,350,460,100,575,370,
635,390,220,300,370,
585,205,430,350,
255,48,590,
220,515,
68